unsat
(:SPACER-inductive-gen                41
 :SPACER-inductive-gen-weaken-fail    41
 :SPACER-inductive-level              13
 :SPACER-max-depth                    15
 :SPACER-max-query-lvl                15
 :SPACER-non-local-gen                36
 :SPACER-num-active-lemmas            17
 :SPACER-num-cant-abstract            2
 :SPACER-num-ctp-blocked              25
 :SPACER-num-invariants               12
 :SPACER-num-is_invariant             99
 :SPACER-num-lemma-jumped             2
 :SPACER-num-lemmas                   75
 :SPACER-num-pobs                     27
 :SPACER-num-propagations             37
 :SPACER-num-queries                  47
 :SPACER-subsume-pob                  14
 :SPACER-subsume-success              30
 :added-eqs                           3940
 :arith-assert-diseq                  370
 :arith-assert-lower                  7416
 :arith-assert-upper                  6714
 :arith-bound-prop                    128
 :arith-conflicts                     90
 :arith-eq-adapter                    510
 :arith-fixed-eqs                     602
 :arith-num-rows                      36
 :arith-offset-eqs                    460
 :arith-pivots                        362
 :arith-row-summations                1026
 :arith-tableau-max-columns           88
 :arith-tableau-max-rows              36
 :conflicts                           724
 :decisions                           4566
 :del-clause                          786
 :final-checks                        186
 :iuc_solver.num_proxies              80
 :max-memory                          32.53
 :memory                              32.04
 :minimized-lits                      18
 :mk-bool-var                         3362
 :mk-clause                           1650
 :num-allocs                          56638258
 :num-checks                          706
 :pool_solver.checks                  353
 :pool_solver.checks.sat              92
 :pool_solver.checks.undef            1
 :propagations                        33396
 :rlimit-count                        207548
 :time                                0.26
 :time.iuc_solver.get_iuc             0.03
 :time.iuc_solver.get_iuc.hyp_reduce1 0.01
 :time.iuc_solver.get_iuc.hyp_reduce2 0.01
 :time.iuc_solver.get_iuc.learn_core  0.01
 :time.pool_solver.proof              0.01
 :time.pool_solver.smt.total          0.07
 :time.pool_solver.smt.total.sat      0.02
 :time.spacer.ctp                     0.00
 :time.spacer.init_rules              0.00
 :time.spacer.mbp                     0.01
 :time.spacer.solve                   0.24
 :time.spacer.solve.propagate         0.03
 :time.spacer.solve.reach             0.21
 :time.spacer.solve.reach.children    0.02
 :time.spacer.solve.reach.cluster     0.02
 :time.spacer.solve.reach.gen.global  0.05
 :time.spacer.solve.reach.gen.ind     0.01)
(:max-memory   32.53
 :memory       32.04
 :num-allocs   56638258
 :rlimit-count 207548
 :time         0.26
 :total-time   0.27)
